language ESSENCE' 1.0
letting lastdx=95
letting cage be [
[41,5,7,5,6,5,5,4,5,0,0],
[47,4,7,4,6,3,6,3,7,2,7],
[4,6,7,0,0, 0,0, 0,0, 0,0],
[35,11,2,10,2,10,1,11,1,12,1],
[15,15,1,0,0, 0,0, 0,0, 0,0],
[49,11,4,12,4,12,5,12,6,13,6],
[25,9,1,9,2,8,2,0,0, 0,0],
[6,6,9,0,0, 0,0, 0,0, 0,0],
[38,10,4,10,5,10,6,10,7,11,7],
[28,14,6,15,6,0,0, 0,0, 0,0],
[43,2,6,2,5,1,5,1,6,0,0],
[19,16,4,15,4,14,4,0,0, 0,0],
[45,5,15,6,15,6,14,7,14,7,13],
[8,2,3,2,2,0,0, 0,0, 0,0],
[7,7,15,0,0, 0,0, 0,0, 0,0],
[11,6,1,0,0, 0,0, 0,0, 0,0],
[12,1,14,2,14,0,0, 0,0, 0,0],
[15,2,10,2,11,3,11,0,0, 0,0],
[6,1,2,0,0, 0,0, 0,0, 0,0],
[16,4,13,5,13,0,0, 0,0, 0,0],
[40,9,14,8,14,8,13,9,13,9,12],
[12,9,9,8,9,0,0, 0,0, 0,0],
[44,3,8,4,8,5,8,5,9,5,10],
[6,13,1,0,0, 0,0, 0,0, 0,0],
[15,5,2,0,0, 0,0, 0,0, 0,0],
[40,12,8,13,8,14,8,15,8,15,7],
[50,15,2,15,3,16,3,16,2,16,1],
[48,1,4,1,3,2,4,3,4,3,5],
[13,14,3,0,0, 0,0, 0,0, 0,0],
[2,13,2,0,0, 0,0, 0,0, 0,0],
[44,9,5,9,4,9,3,8,3,0,0],
[33,14,7,13,7,12,7,0,0, 0,0],
[21,10,12,10,13,10,14,0,0, 0,0],
[37,15,14,15,13,16,13,16,14,0,0],
[13,1,8,1,7,2,8,0,0, 0,0],
[43,4,1,5,1,3,1,2,1,1,1],
[23,15,12,14,12,13,12,0,0, 0,0],
[20,16,11,16,12,0,0, 0,0, 0,0],
[38,7,4,7,5,8,5,8,4,0,0],
[35,11,11,10,11,10,10,11,10,0,0],
[4,12,13,0,0, 0,0, 0,0, 0,0],
[27,6,12,6,13,0,0, 0,0, 0,0],
[8,14,9,15,9,0,0, 0,0, 0,0],
[47,9,7,9,8,8,8,8,7,0,0],
[30,12,14,13,14,13,13,14,13,0,0],
[8,10,8,0,0, 0,0, 0,0, 0,0],
[8,5,12,0,0, 0,0, 0,0, 0,0],
[12,14,15,14,14,14,16,0,0, 0,0],
[59,1,12,1,13,2,13,3,13,3,14],
[22,1,10,1,11,0,0, 0,0, 0,0],
[18,1,9,2,9,0,0, 0,0, 0,0],
[16,4,4,0,0, 0,0, 0,0, 0,0],
[42,16,7,16,8,16,9,16,10,0,0],
[7,9,16,8,16,0,0, 0,0, 0,0],
[8,8,1,0,0, 0,0, 0,0, 0,0],
[19,7,10,7,9,0,0, 0,0, 0,0],
[10,4,9,0,0, 0,0, 0,0, 0,0],
[21,13,9,13,10,0,0, 0,0, 0,0],
[14,2,15,3,15,0,0, 0,0, 0,0],
[18,6,8,7,8,7,7,7,6,0,0],
[10,9,6,8,6,0,0, 0,0, 0,0],
[5,7,3,0,0, 0,0, 0,0, 0,0],
[29,6,16,7,16,0,0, 0,0, 0,0],
[10,6,4,0,0, 0,0, 0,0, 0,0],
[6,5,14,0,0, 0,0, 0,0, 0,0],
[9,5,4,5,3,0,0, 0,0, 0,0],
[31,9,11,9,10,8,10,8,11,0,0],
[16,6,5,6,6,0,0, 0,0, 0,0],
[30,13,3,13,4,13,5,14,5,15,5],
[34,4,10,3,10,3,9,0,0, 0,0],
[14,7,11,0,0, 0,0, 0,0, 0,0],
[40,16,16,15,16,15,15,16,15,0,0],
[23,14,1,14,2,0,0, 0,0, 0,0],
[4,10,9,0,0, 0,0, 0,0, 0,0],
[36,11,15,11,14,12,15,12,16,0,0],
[18,13,15,13,16,0,0, 0,0, 0,0],
[35,15,10,15,11,14,11,13,11,14,10],
[17,9,15,8,15,0,0, 0,0, 0,0],
[4,16,6,16,5,0,0, 0,0, 0,0],
[25,5,11,6,11,6,10,0,0, 0,0],
[20,7,12,8,12,0,0, 0,0, 0,0],
[6,2,12,0,0, 0,0, 0,0, 0,0],
[11,10,3,0,0, 0,0, 0,0, 0,0],
[24,3,16,4,16,5,16,4,15,4,14],
[26,1,15,1,16,2,16,0,0, 0,0],
[37,3,2,3,3,4,3,4,2,0,0],
[5,3,12,0,0, 0,0, 0,0, 0,0],
[22,4,11,4,12,0,0, 0,0, 0,0],
[22,6,2,6,3,7,2,7,1,0,0],
[16,10,15,0,0, 0,0, 0,0, 0,0],
[29,10,16,11,16,0,0, 0,0, 0,0],
[10,11,3,0,0, 0,0, 0,0, 0,0],
[23,11,5,11,6,0,0, 0,0, 0,0],
[16,11,8,0,0, 0,0, 0,0, 0,0],
[20,11,9,12,9,0,0, 0,0, 0,0],
[9,12,2,12,3,0,0, 0,0, 0,0]
]
